2 5002 600 0
4 5002 2008 0
6 5002 2894 0
8 5002 4166 3
10 5002 5034 9
12 5002 5947 45
14 5002 7118 195
16 5002 7453 613
18 5002 7957 2442
20 5002 8966 7001
22 5002 9377 21203
24 5002 10077 60472
26 5002 10564 167779
28 5002 10905 404949
30 5002 10905 946082
32 5002 11823 2534080
34 5002 12731 7030152
36 5002 13658 18878859
38 5002 14850 104853431
